problems/csplib-prob019/MagicSquares-models/00_compact/O0/minion/model-04-solution000001.solution
language Essence 1.3

letting ms be
        function(1 --> 1, 2 --> 2, 3 --> 15, 4 --> 16, 5 --> 12, 6 --> 14, 7 --> 3, 8 --> 5, 9 --> 13, 10 --> 7,
                 11 --> 10, 12 --> 4, 13 --> 8, 14 --> 11, 15 --> 6, 16 --> 9)
