problems/csplib-prob019/MagicSquares-models/01_noch_lvlPruned/O2/minion/model-04-solution000001.eprime-solution
language ESSENCE' 1.0

letting ms_Function1DPartial_Flags be
        [true, true, true, true, true, true, true, true, true, true, true, true, true, true, true, true; int(1..16)]
letting ms_Function1DPartial_Values be [1, 2, 15, 16, 12, 14, 3, 5, 13, 7, 10, 4, 8, 11, 6, 9; int(1..16)]
